instances/shortest_path/discrete/shortest_path_9_19.lp
\ Model nohadani_9_19
\ LP format - for model browsing. Use MPS format to capture full model detail.
\ Signature: 0x3d742310a829b0f1
Minimize
  31.14482300479487 y[0,1] + 23.40939982143925 y[0,2]
   + 19.1049731745428 y[0,3] + 15.29705854077836 y[0,4]
   + 62.3698645180507 y[0,5] + 70.71067811865476 y[0,6]
   + 62.36184731067546 y[0,7] + 47.4236228055175 y[0,8]
   + 31.14482300479487 y[1,0] + 10.295630140987 y[1,2]
   + 36.40054944640259 y[1,3] + 36.05551275463989 y[1,4]
   + 72.80109889280519 y[1,5] + 48.27007354458868 y[1,6]
   + 74.51845409024533 y[1,7] + 35.22782990761707 y[1,8]
   + 23.40939982143925 y[2,0] + 10.295630140987 y[2,1]
   + 33.60059523282288 y[2,3] + 25.96150997149434 y[2,4]
   + 63.51377803280167 y[2,5] + 58 y[2,6] + 65 y[2,7]
   + 42.05948168962618 y[2,8] + 19.1049731745428 y[3,0]
   + 36.40054944640259 y[3,1] + 33.60059523282288 y[3,2]
   + 34.36568055487916 y[3,4] + 61.84658438426491 y[3,6]
   + 35.4682957019364 y[3,8] + 15.29705854077836 y[4,0]
   + 36.05551275463989 y[4,1] + 25.96150997149434 y[4,2]
   + 34.36568055487916 y[4,3] + 47.07440918375928 y[4,5]
   + 47.12748667179272 y[4,7] + 60.4400529450463 y[4,8]
   + 62.3698645180507 y[5,0] + 72.80109889280519 y[5,1]
   + 63.51377803280167 y[5,2] + 47.07440918375928 y[5,4]
   + 4.123105625617661 y[5,7] + 70.71067811865476 y[6,0]
   + 48.27007354458868 y[6,1] + 58 y[6,2] + 61.84658438426491 y[6,3]
   + 27.07397274136177 y[6,8] + 62.36184731067546 y[7,0]
   + 74.51845409024533 y[7,1] + 65 y[7,2] + 47.12748667179272 y[7,4]
   + 4.123105625617661 y[7,5] + 47.4236228055175 y[8,0]
   + 35.22782990761707 y[8,1] + 42.05948168962618 y[8,2]
   + 35.4682957019364 y[8,3] + 60.4400529450463 y[8,4]
   + 27.07397274136177 y[8,6] + x[0,1] + x[0,2] + x[0,3] + x[0,4] + x[0,5]
   + x[0,6] + x[0,7] + x[0,8] + x[1,0] + x[1,2] + x[1,3] + x[1,4] + x[1,5]
   + x[1,6] + x[1,7] + x[1,8] + x[2,0] + x[2,1] + x[2,3] + x[2,4] + x[2,5]
   + x[2,6] + x[2,7] + x[2,8] + x[3,0] + x[3,1] + x[3,2] + x[3,4] + x[3,6]
   + x[3,8] + x[4,0] + x[4,1] + x[4,2] + x[4,3] + x[4,5] + x[4,7] + x[4,8]
   + x[5,0] + x[5,1] + x[5,2] + x[5,4] + x[5,7] + x[6,0] + x[6,1] + x[6,2]
   + x[6,3] + x[6,8] + x[7,0] + x[7,1] + x[7,2] + x[7,4] + x[7,5] + x[8,0]
   + x[8,1] + x[8,2] + x[8,3] + x[8,4] + x[8,6] + 3.114482300479487 r[0,1]
   + 2.340939982143925 r[0,2] + 1.91049731745428 r[0,3]
   + 1.529705854077836 r[0,4] + 6.236986451805071 r[0,5]
   + 7.071067811865476 r[0,6] + 6.236184731067546 r[0,7]
   + 4.742362280551751 r[0,8] + 3.114482300479487 r[1,0]
   + 1.0295630140987 r[1,2] + 3.640054944640259 r[1,3]
   + 3.60555127546399 r[1,4] + 7.280109889280519 r[1,5]
   + 4.827007354458869 r[1,6] + 7.451845409024533 r[1,7]
   + 3.522782990761707 r[1,8] + 2.340939982143925 r[2,0]
   + 1.0295630140987 r[2,1] + 3.360059523282288 r[2,3]
   + 2.596150997149434 r[2,4] + 6.351377803280167 r[2,5] + 5.8 r[2,6]
   + 6.5 r[2,7] + 4.205948168962618 r[2,8] + 1.91049731745428 r[3,0]
   + 3.640054944640259 r[3,1] + 3.360059523282288 r[3,2]
   + 3.436568055487916 r[3,4] + 6.184658438426491 r[3,6]
   + 3.54682957019364 r[3,8] + 1.529705854077836 r[4,0]
   + 3.60555127546399 r[4,1] + 2.596150997149434 r[4,2]
   + 3.436568055487916 r[4,3] + 4.707440918375928 r[4,5]
   + 4.712748667179272 r[4,7] + 6.044005294504631 r[4,8]
   + 6.236986451805071 r[5,0] + 7.280109889280519 r[5,1]
   + 6.351377803280167 r[5,2] + 4.707440918375928 r[5,4]
   + 0.4123105625617661 r[5,7] + 7.071067811865476 r[6,0]
   + 4.827007354458869 r[6,1] + 5.8 r[6,2] + 6.184658438426491 r[6,3]
   + 2.707397274136177 r[6,8] + 6.236184731067546 r[7,0]
   + 7.451845409024533 r[7,1] + 6.5 r[7,2] + 4.712748667179272 r[7,4]
   + 0.4123105625617661 r[7,5] + 4.742362280551751 r[8,0]
   + 3.522782990761707 r[8,1] + 4.205948168962618 r[8,2]
   + 3.54682957019364 r[8,3] + 6.044005294504631 r[8,4]
   + 2.707397274136177 r[8,6]
Subject To
 flow_cons_inner_nodes[0]: - y[0,1] - y[0,2] - y[0,3] - y[0,4] - y[0,5]
   - y[0,6] - y[0,7] - y[0,8] + y[1,0] + y[2,0] + y[3,0] + y[4,0] + y[5,0]
   + y[6,0] + y[7,0] + y[8,0] = 0
 flow_cons_inner_nodes[1]: y[0,1] - y[1,0] - y[1,2] - y[1,3] - y[1,4]
   - y[1,5] - y[1,6] - y[1,7] - y[1,8] + y[2,1] + y[3,1] + y[4,1] + y[5,1]
   + y[6,1] + y[7,1] + y[8,1] = 0
 flow_cons_inner_nodes[2]: y[0,2] + y[1,2] - y[2,0] - y[2,1] - y[2,3]
   - y[2,4] - y[2,5] - y[2,6] - y[2,7] - y[2,8] + y[3,2] + y[4,2] + y[5,2]
   + y[6,2] + y[7,2] + y[8,2] = 0
 flow_cons_inner_nodes[3]: y[0,3] + y[1,3] + y[2,3] - y[3,0] - y[3,1]
   - y[3,2] - y[3,4] - y[3,6] - y[3,8] + y[4,3] + y[6,3] + y[8,3] = 0
 flow_cons_inner_nodes[4]: y[0,4] + y[1,4] + y[2,4] + y[3,4] - y[4,0]
   - y[4,1] - y[4,2] - y[4,3] - y[4,5] - y[4,7] - y[4,8] + y[5,4] + y[7,4]
   + y[8,4] = 0
 flow_cons_inner_nodes[5]: y[0,5] + y[1,5] + y[2,5] + y[4,5] - y[5,0]
   - y[5,1] - y[5,2] - y[5,4] - y[5,7] + y[7,5] = 0
 flow_cons_inner_nodes[8]: y[0,8] + y[1,8] + y[2,8] + y[3,8] + y[4,8]
   + y[6,8] - y[8,0] - y[8,1] - y[8,2] - y[8,3] - y[8,4] - y[8,6] = 0
 flow_cons_source: - y[0,6] - y[1,6] - y[2,6] - y[3,6] + y[6,0] + y[6,1]
   + y[6,2] + y[6,3] + y[6,8] - y[8,6] = 1
 flow_cons_target: y[0,7] + y[1,7] + y[2,7] + y[4,7] + y[5,7] - y[7,0]
   - y[7,1] - y[7,2] - y[7,4] - y[7,5] = 1
 primal_lower: 1.009576112297332 x[0,1] + 2.520482361165857 x[0,2]
   + 3.341444986425848 x[0,3] + 2.984965455005488 x[0,4]
   + 0.6415473096477006 x[0,5] + 0.4927560043848235 x[0,6]
   + 0.9498376903285152 x[0,7] + 2.853121932835629 x[0,8]
   + 0.6290604463030375 x[1,0] + 2.700305346129273 x[1,2]
   + 3.294980780623881 x[1,3] + 2.532095789791011 x[1,4]
   + 3.007780408511112 x[1,5] + 4.322938978511581 x[1,6]
   + 3.251873256501284 x[1,7] + 3.389846598559219 x[1,8]
   + 1.574479189687 x[2,0] + 3.566703534272562 x[2,1]
   + 0.0497206050476437 x[2,3] + 3.789127896907546 x[2,4]
   + 1.249719526758122 x[2,5] + 2.069918310706037 x[2,6]
   + 1.330390372789406 x[2,7] + 0.4085856185747276 x[2,8]
   + 2.37857716572905 x[3,0] + 0.5098476483142775 x[3,1]
   + 1.660820950991677 x[3,2] + 0.3789004427205727 x[3,4]
   + 3.298965688780577 x[3,6] + 3.784476048677988 x[3,8]
   + 4.173275419368711 x[4,0] + 0.5647781757139737 x[4,1]
   + 2.462022310890437 x[4,2] + 1.719433113899055 x[4,3]
   + 4.058672363118778 x[4,5] + 1.601514127480636 x[4,7]
   + 2.050304834474895 x[4,8] + 1.736709118746092 x[5,0]
   + 2.132831263850022 x[5,1] + 1.438716555109718 x[5,2]
   + 2.4016051905582 x[5,4] + 1.077045809698325 x[5,7]
   + 0.9624247418282583 x[6,0] + 1.511988525792515 x[6,1]
   + 4.235267916921093 x[6,2] + 2.780938964468009 x[6,3]
   + 0.8186819500497564 x[6,8] + 0.2130378101487068 x[7,0]
   + 3.075522947453989 x[7,1] + 1.256801197248374 x[7,2]
   + 2.284852945069571 x[7,4] + 2.002356298189803 x[7,5]
   + 2.429027816780445 x[8,0] + 1.129797188041105 x[8,1]
   + 0.3488616469692485 x[8,2] + 1.50419918696109 x[8,3]
   + 4.001036805262228 x[8,4] + 3.579157787039199 x[8,6] + 24 u[0,1]
   + 33 u[0,2] + 51 u[0,3] + 24 u[0,4] + 89 u[0,5] + 86 u[0,6] + 82 u[0,7]
   + 4 u[0,8] + 54 u[1,0] + 35 u[1,2] + 44 u[1,3] + 28 u[1,4] + 37 u[1,5]
   + 85 u[1,6] + 69 u[1,7] + 53 u[1,8] + 78 u[2,0] + 25 u[2,1] + 30 u[2,3]
   + 51 u[2,4] + 58 u[2,5] + 8 u[2,6] + 93 u[2,7] + 15 u[2,8] + 65 u[3,0]
   + 81 u[3,1] + 47 u[3,2] + 8 u[3,4] + 98 u[3,6] + 16 u[3,8] + 38 u[4,0]
   + 48 u[4,1] + 4 u[4,2] + 38 u[4,3] + 93 u[4,5] + 86 u[4,7] + 21 u[4,8]
   + 9 u[5,0] + 85 u[5,1] + 11 u[5,2] + 12 u[5,4] + 98 u[5,7] + 55 u[6,0]
   + 10 u[6,1] + 100 u[6,2] + 19 u[6,3] + 22 u[6,8] + 62 u[7,0] + 4 u[7,1]
   + 77 u[7,2] + 95 u[7,4] + 97 u[7,5] + 70 u[8,0] + 49 u[8,1] + 25 u[8,2]
   + 16 u[8,3] + 30 u[8,4] + 35 u[8,6] <= 252
 mccormick1[0,1]: - u[0,1] + r[0,1] <= 0
 mccormick1[0,2]: - u[0,2] + r[0,2] <= 0
 mccormick1[0,3]: - u[0,3] + r[0,3] <= 0
 mccormick1[0,4]: - u[0,4] + r[0,4] <= 0
 mccormick1[0,5]: - u[0,5] + r[0,5] <= 0
 mccormick1[0,6]: - u[0,6] + r[0,6] <= 0
 mccormick1[0,7]: - u[0,7] + r[0,7] <= 0
 mccormick1[0,8]: - u[0,8] + r[0,8] <= 0
 mccormick1[1,0]: - u[1,0] + r[1,0] <= 0
 mccormick1[1,2]: - u[1,2] + r[1,2] <= 0
 mccormick1[1,3]: - u[1,3] + r[1,3] <= 0
 mccormick1[1,4]: - u[1,4] + r[1,4] <= 0
 mccormick1[1,5]: - u[1,5] + r[1,5] <= 0
 mccormick1[1,6]: - u[1,6] + r[1,6] <= 0
 mccormick1[1,7]: - u[1,7] + r[1,7] <= 0
 mccormick1[1,8]: - u[1,8] + r[1,8] <= 0
 mccormick1[2,0]: - u[2,0] + r[2,0] <= 0
 mccormick1[2,1]: - u[2,1] + r[2,1] <= 0
 mccormick1[2,3]: - u[2,3] + r[2,3] <= 0
 mccormick1[2,4]: - u[2,4] + r[2,4] <= 0
 mccormick1[2,5]: - u[2,5] + r[2,5] <= 0
 mccormick1[2,6]: - u[2,6] + r[2,6] <= 0
 mccormick1[2,7]: - u[2,7] + r[2,7] <= 0
 mccormick1[2,8]: - u[2,8] + r[2,8] <= 0
 mccormick1[3,0]: - u[3,0] + r[3,0] <= 0
 mccormick1[3,1]: - u[3,1] + r[3,1] <= 0
 mccormick1[3,2]: - u[3,2] + r[3,2] <= 0
 mccormick1[3,4]: - u[3,4] + r[3,4] <= 0
 mccormick1[3,6]: - u[3,6] + r[3,6] <= 0
 mccormick1[3,8]: - u[3,8] + r[3,8] <= 0
 mccormick1[4,0]: - u[4,0] + r[4,0] <= 0
 mccormick1[4,1]: - u[4,1] + r[4,1] <= 0
 mccormick1[4,2]: - u[4,2] + r[4,2] <= 0
 mccormick1[4,3]: - u[4,3] + r[4,3] <= 0
 mccormick1[4,5]: - u[4,5] + r[4,5] <= 0
 mccormick1[4,7]: - u[4,7] + r[4,7] <= 0
 mccormick1[4,8]: - u[4,8] + r[4,8] <= 0
 mccormick1[5,0]: - u[5,0] + r[5,0] <= 0
 mccormick1[5,1]: - u[5,1] + r[5,1] <= 0
 mccormick1[5,2]: - u[5,2] + r[5,2] <= 0
 mccormick1[5,4]: - u[5,4] + r[5,4] <= 0
 mccormick1[5,7]: - u[5,7] + r[5,7] <= 0
 mccormick1[6,0]: - u[6,0] + r[6,0] <= 0
 mccormick1[6,1]: - u[6,1] + r[6,1] <= 0
 mccormick1[6,2]: - u[6,2] + r[6,2] <= 0
 mccormick1[6,3]: - u[6,3] + r[6,3] <= 0
 mccormick1[6,8]: - u[6,8] + r[6,8] <= 0
 mccormick1[7,0]: - u[7,0] + r[7,0] <= 0
 mccormick1[7,1]: - u[7,1] + r[7,1] <= 0
 mccormick1[7,2]: - u[7,2] + r[7,2] <= 0
 mccormick1[7,4]: - u[7,4] + r[7,4] <= 0
 mccormick1[7,5]: - u[7,5] + r[7,5] <= 0
 mccormick1[8,0]: - u[8,0] + r[8,0] <= 0
 mccormick1[8,1]: - u[8,1] + r[8,1] <= 0
 mccormick1[8,2]: - u[8,2] + r[8,2] <= 0
 mccormick1[8,3]: - u[8,3] + r[8,3] <= 0
 mccormick1[8,4]: - u[8,4] + r[8,4] <= 0
 mccormick1[8,6]: - u[8,6] + r[8,6] <= 0
 mccormick2[0,1]: - y[0,1] + r[0,1] <= 0
 mccormick2[0,2]: - y[0,2] + r[0,2] <= 0
 mccormick2[0,3]: - y[0,3] + r[0,3] <= 0
 mccormick2[0,4]: - y[0,4] + r[0,4] <= 0
 mccormick2[0,5]: - y[0,5] + r[0,5] <= 0
 mccormick2[0,6]: - y[0,6] + r[0,6] <= 0
 mccormick2[0,7]: - y[0,7] + r[0,7] <= 0
 mccormick2[0,8]: - y[0,8] + r[0,8] <= 0
 mccormick2[1,0]: - y[1,0] + r[1,0] <= 0
 mccormick2[1,2]: - y[1,2] + r[1,2] <= 0
 mccormick2[1,3]: - y[1,3] + r[1,3] <= 0
 mccormick2[1,4]: - y[1,4] + r[1,4] <= 0
 mccormick2[1,5]: - y[1,5] + r[1,5] <= 0
 mccormick2[1,6]: - y[1,6] + r[1,6] <= 0
 mccormick2[1,7]: - y[1,7] + r[1,7] <= 0
 mccormick2[1,8]: - y[1,8] + r[1,8] <= 0
 mccormick2[2,0]: - y[2,0] + r[2,0] <= 0
 mccormick2[2,1]: - y[2,1] + r[2,1] <= 0
 mccormick2[2,3]: - y[2,3] + r[2,3] <= 0
 mccormick2[2,4]: - y[2,4] + r[2,4] <= 0
 mccormick2[2,5]: - y[2,5] + r[2,5] <= 0
 mccormick2[2,6]: - y[2,6] + r[2,6] <= 0
 mccormick2[2,7]: - y[2,7] + r[2,7] <= 0
 mccormick2[2,8]: - y[2,8] + r[2,8] <= 0
 mccormick2[3,0]: - y[3,0] + r[3,0] <= 0
 mccormick2[3,1]: - y[3,1] + r[3,1] <= 0
 mccormick2[3,2]: - y[3,2] + r[3,2] <= 0
 mccormick2[3,4]: - y[3,4] + r[3,4] <= 0
 mccormick2[3,6]: - y[3,6] + r[3,6] <= 0
 mccormick2[3,8]: - y[3,8] + r[3,8] <= 0
 mccormick2[4,0]: - y[4,0] + r[4,0] <= 0
 mccormick2[4,1]: - y[4,1] + r[4,1] <= 0
 mccormick2[4,2]: - y[4,2] + r[4,2] <= 0
 mccormick2[4,3]: - y[4,3] + r[4,3] <= 0
 mccormick2[4,5]: - y[4,5] + r[4,5] <= 0
 mccormick2[4,7]: - y[4,7] + r[4,7] <= 0
 mccormick2[4,8]: - y[4,8] + r[4,8] <= 0
 mccormick2[5,0]: - y[5,0] + r[5,0] <= 0
 mccormick2[5,1]: - y[5,1] + r[5,1] <= 0
 mccormick2[5,2]: - y[5,2] + r[5,2] <= 0
 mccormick2[5,4]: - y[5,4] + r[5,4] <= 0
 mccormick2[5,7]: - y[5,7] + r[5,7] <= 0
 mccormick2[6,0]: - y[6,0] + r[6,0] <= 0
 mccormick2[6,1]: - y[6,1] + r[6,1] <= 0
 mccormick2[6,2]: - y[6,2] + r[6,2] <= 0
 mccormick2[6,3]: - y[6,3] + r[6,3] <= 0
 mccormick2[6,8]: - y[6,8] + r[6,8] <= 0
 mccormick2[7,0]: - y[7,0] + r[7,0] <= 0
 mccormick2[7,1]: - y[7,1] + r[7,1] <= 0
 mccormick2[7,2]: - y[7,2] + r[7,2] <= 0
 mccormick2[7,4]: - y[7,4] + r[7,4] <= 0
 mccormick2[7,5]: - y[7,5] + r[7,5] <= 0
 mccormick2[8,0]: - y[8,0] + r[8,0] <= 0
 mccormick2[8,1]: - y[8,1] + r[8,1] <= 0
 mccormick2[8,2]: - y[8,2] + r[8,2] <= 0
 mccormick2[8,3]: - y[8,3] + r[8,3] <= 0
 mccormick2[8,4]: - y[8,4] + r[8,4] <= 0
 mccormick2[8,6]: - y[8,6] + r[8,6] <= 0
 mccormick3[0,1]: - y[0,1] - u[0,1] + r[0,1] >= -1
 mccormick3[0,2]: - y[0,2] - u[0,2] + r[0,2] >= -1
 mccormick3[0,3]: - y[0,3] - u[0,3] + r[0,3] >= -1
 mccormick3[0,4]: - y[0,4] - u[0,4] + r[0,4] >= -1
 mccormick3[0,5]: - y[0,5] - u[0,5] + r[0,5] >= -1
 mccormick3[0,6]: - y[0,6] - u[0,6] + r[0,6] >= -1
 mccormick3[0,7]: - y[0,7] - u[0,7] + r[0,7] >= -1
 mccormick3[0,8]: - y[0,8] - u[0,8] + r[0,8] >= -1
 mccormick3[1,0]: - y[1,0] - u[1,0] + r[1,0] >= -1
 mccormick3[1,2]: - y[1,2] - u[1,2] + r[1,2] >= -1
 mccormick3[1,3]: - y[1,3] - u[1,3] + r[1,3] >= -1
 mccormick3[1,4]: - y[1,4] - u[1,4] + r[1,4] >= -1
 mccormick3[1,5]: - y[1,5] - u[1,5] + r[1,5] >= -1
 mccormick3[1,6]: - y[1,6] - u[1,6] + r[1,6] >= -1
 mccormick3[1,7]: - y[1,7] - u[1,7] + r[1,7] >= -1
 mccormick3[1,8]: - y[1,8] - u[1,8] + r[1,8] >= -1
 mccormick3[2,0]: - y[2,0] - u[2,0] + r[2,0] >= -1
 mccormick3[2,1]: - y[2,1] - u[2,1] + r[2,1] >= -1
 mccormick3[2,3]: - y[2,3] - u[2,3] + r[2,3] >= -1
 mccormick3[2,4]: - y[2,4] - u[2,4] + r[2,4] >= -1
 mccormick3[2,5]: - y[2,5] - u[2,5] + r[2,5] >= -1
 mccormick3[2,6]: - y[2,6] - u[2,6] + r[2,6] >= -1
 mccormick3[2,7]: - y[2,7] - u[2,7] + r[2,7] >= -1
 mccormick3[2,8]: - y[2,8] - u[2,8] + r[2,8] >= -1
 mccormick3[3,0]: - y[3,0] - u[3,0] + r[3,0] >= -1
 mccormick3[3,1]: - y[3,1] - u[3,1] + r[3,1] >= -1
 mccormick3[3,2]: - y[3,2] - u[3,2] + r[3,2] >= -1
 mccormick3[3,4]: - y[3,4] - u[3,4] + r[3,4] >= -1
 mccormick3[3,6]: - y[3,6] - u[3,6] + r[3,6] >= -1
 mccormick3[3,8]: - y[3,8] - u[3,8] + r[3,8] >= -1
 mccormick3[4,0]: - y[4,0] - u[4,0] + r[4,0] >= -1
 mccormick3[4,1]: - y[4,1] - u[4,1] + r[4,1] >= -1
 mccormick3[4,2]: - y[4,2] - u[4,2] + r[4,2] >= -1
 mccormick3[4,3]: - y[4,3] - u[4,3] + r[4,3] >= -1
 mccormick3[4,5]: - y[4,5] - u[4,5] + r[4,5] >= -1
 mccormick3[4,7]: - y[4,7] - u[4,7] + r[4,7] >= -1
 mccormick3[4,8]: - y[4,8] - u[4,8] + r[4,8] >= -1
 mccormick3[5,0]: - y[5,0] - u[5,0] + r[5,0] >= -1
 mccormick3[5,1]: - y[5,1] - u[5,1] + r[5,1] >= -1
 mccormick3[5,2]: - y[5,2] - u[5,2] + r[5,2] >= -1
 mccormick3[5,4]: - y[5,4] - u[5,4] + r[5,4] >= -1
 mccormick3[5,7]: - y[5,7] - u[5,7] + r[5,7] >= -1
 mccormick3[6,0]: - y[6,0] - u[6,0] + r[6,0] >= -1
 mccormick3[6,1]: - y[6,1] - u[6,1] + r[6,1] >= -1
 mccormick3[6,2]: - y[6,2] - u[6,2] + r[6,2] >= -1
 mccormick3[6,3]: - y[6,3] - u[6,3] + r[6,3] >= -1
 mccormick3[6,8]: - y[6,8] - u[6,8] + r[6,8] >= -1
 mccormick3[7,0]: - y[7,0] - u[7,0] + r[7,0] >= -1
 mccormick3[7,1]: - y[7,1] - u[7,1] + r[7,1] >= -1
 mccormick3[7,2]: - y[7,2] - u[7,2] + r[7,2] >= -1
 mccormick3[7,4]: - y[7,4] - u[7,4] + r[7,4] >= -1
 mccormick3[7,5]: - y[7,5] - u[7,5] + r[7,5] >= -1
 mccormick3[8,0]: - y[8,0] - u[8,0] + r[8,0] >= -1
 mccormick3[8,1]: - y[8,1] - u[8,1] + r[8,1] >= -1
 mccormick3[8,2]: - y[8,2] - u[8,2] + r[8,2] >= -1
 mccormick3[8,3]: - y[8,3] - u[8,3] + r[8,3] >= -1
 mccormick3[8,4]: - y[8,4] - u[8,4] + r[8,4] >= -1
 mccormick3[8,6]: - y[8,6] - u[8,6] + r[8,6] >= -1
Bounds
Binaries
 y[0,1] y[0,2] y[0,3] y[0,4] y[0,5] y[0,6] y[0,7] y[0,8] y[1,0] y[1,2]
 y[1,3] y[1,4] y[1,5] y[1,6] y[1,7] y[1,8] y[2,0] y[2,1] y[2,3] y[2,4]
 y[2,5] y[2,6] y[2,7] y[2,8] y[3,0] y[3,1] y[3,2] y[3,4] y[3,6] y[3,8]
 y[4,0] y[4,1] y[4,2] y[4,3] y[4,5] y[4,7] y[4,8] y[5,0] y[5,1] y[5,2]
 y[5,4] y[5,7] y[6,0] y[6,1] y[6,2] y[6,3] y[6,8] y[7,0] y[7,1] y[7,2]
 y[7,4] y[7,5] y[8,0] y[8,1] y[8,2] y[8,3] y[8,4] y[8,6] x[0,1] x[0,2]
 x[0,3] x[0,4] x[0,5] x[0,6] x[0,7] x[0,8] x[1,0] x[1,2] x[1,3] x[1,4]
 x[1,5] x[1,6] x[1,7] x[1,8] x[2,0] x[2,1] x[2,3] x[2,4] x[2,5] x[2,6]
 x[2,7] x[2,8] x[3,0] x[3,1] x[3,2] x[3,4] x[3,6] x[3,8] x[4,0] x[4,1]
 x[4,2] x[4,3] x[4,5] x[4,7] x[4,8] x[5,0] x[5,1] x[5,2] x[5,4] x[5,7]
 x[6,0] x[6,1] x[6,2] x[6,3] x[6,8] x[7,0] x[7,1] x[7,2] x[7,4] x[7,5]
 x[8,0] x[8,1] x[8,2] x[8,3] x[8,4] x[8,6] u[0,1] u[0,2] u[0,3] u[0,4]
 u[0,5] u[0,6] u[0,7] u[0,8] u[1,0] u[1,2] u[1,3] u[1,4] u[1,5] u[1,6]
 u[1,7] u[1,8] u[2,0] u[2,1] u[2,3] u[2,4] u[2,5] u[2,6] u[2,7] u[2,8]
 u[3,0] u[3,1] u[3,2] u[3,4] u[3,6] u[3,8] u[4,0] u[4,1] u[4,2] u[4,3]
 u[4,5] u[4,7] u[4,8] u[5,0] u[5,1] u[5,2] u[5,4] u[5,7] u[6,0] u[6,1]
 u[6,2] u[6,3] u[6,8] u[7,0] u[7,1] u[7,2] u[7,4] u[7,5] u[8,0] u[8,1]
 u[8,2] u[8,3] u[8,4] u[8,6] r[0,1] r[0,2] r[0,3] r[0,4] r[0,5] r[0,6]
 r[0,7] r[0,8] r[1,0] r[1,2] r[1,3] r[1,4] r[1,5] r[1,6] r[1,7] r[1,8]
 r[2,0] r[2,1] r[2,3] r[2,4] r[2,5] r[2,6] r[2,7] r[2,8] r[3,0] r[3,1]
 r[3,2] r[3,4] r[3,6] r[3,8] r[4,0] r[4,1] r[4,2] r[4,3] r[4,5] r[4,7]
 r[4,8] r[5,0] r[5,1] r[5,2] r[5,4] r[5,7] r[6,0] r[6,1] r[6,2] r[6,3]
 r[6,8] r[7,0] r[7,1] r[7,2] r[7,4] r[7,5] r[8,0] r[8,1] r[8,2] r[8,3]
 r[8,4] r[8,6]
End
