instances/shortest_path/discrete/shortest_path_9_19.kp
67079
252

[1.0095761122973321 2.520482361165857 3.341444986425848 2.984965455005488 0.6415473096477006 0.49275600438482353 0.9498376903285152 2.8531219328356294 0.6290604463030375 2.7003053461292734 3.2949807806238813 2.5320957897910112 3.0077804085111115 4.322938978511581 3.2518732565012836 3.3898465985592185 1.5744791896869996 3.5667035342725617 0.0497206050476437 3.7891278969075457 1.2497195267581218 2.069918310706037 1.3303903727894058 0.40858561857472764 2.3785771657290495 0.5098476483142775 1.6608209509916771 0.37890044272057266 3.2989656887805774 3.7844760486779876 4.173275419368711 0.5647781757139737 2.4620223108904367 1.719433113899055 4.058672363118778 1.6015141274806364 2.0503048344748946 1.7367091187460921 2.1328312638500218 1.4387165551097176 2.4016051905582003 1.0770458096983253 0.9624247418282583 1.5119885257925154 4.235267916921093 2.780938964468009 0.8186819500497564 0.21303781014870676 3.0755229474539894 1.2568011972483737 2.2848529450695714 2.0023562981898033 2.4290278167804447 1.1297971880411046 0.3488616469692485 1.50419918696109 4.001036805262228 3.579157787039199]

[24 33 51 24 89 86 82 4 54 35 44 28 37 85 69 53 78 25 30 51 58 8 93 15 65 81 47 8 98 16 38 48 4 38 93 86 21 9 85 11 12 98 55 10 100 19 22 62 4 77 95 97 70 49 25 16 30 35]
